

budget= 51200.000000;

nprojects=64;

nareas= 8;

nactivities= 16;

nsynergies= 2;

Areas=[
< 2549.910, 15044.469>
< 8449.121, 17548.174>
< 6426.373, 10381.064>
< 3247.125, 6494.249>
< 3539.081, 12583.398>
< 2326.414, 9693.390>
< 5024.795, 12333.589>
< 1386.162, 13630.593>
];


Projects= [
<380.87, 5910.48, 4,7.34>
<2204.84, 5974.18, 8,3.70>
<3075.84, 5842.46, 2,7.90>
<2143.84, 5793.40, 8,5.59>
<1372.92, 5950.00, 1,4.12>
<3164.77, 6078.28, 5,3.84>
<852.82, 6003.02, 5,5.38>
<4382.83, 5912.52, 3,6.57>
<3981.37, 5826.54, 1,8.67>
<971.96, 5942.76, 7,8.32>
<2946.76, 5963.24, 4,3.91>
<3060.25, 5868.26, 2,8.18>
<2719.18, 5688.00, 8,8.11>
<4519.75, 5875.38, 6,8.81>
<4921.84, 5929.68, 1,7.55>
<4833.92, 5880.70, 2,4.54>
<1352.33, 5856.68, 8,9.09>
<4779.13, 5893.76, 1,3.49>
<3711.07, 5850.28, 3,5.87>
<1236.71, 5896.10, 1,3.14>
<1981.50, 5648.52, 3,5.80>
<2370.76, 5928.66, 7,8.46>
<1095.52, 5863.54, 2,8.32>
<4572.93, 5940.30, 2,5.24>
<3717.24, 5901.60, 8,9.86>
<225.68, 5804.76, 4,4.33>
<2215.13, 6074.28, 2,6.64>
<4234.74, 6007.70, 8,8.46>
<1818.98, 5749.48, 1,6.99>
<640.53, 5691.30, 6,5.80>
<240.00, 6024.76, 6,6.01>
<2111.70, 5813.22, 7,3.07>
<1130.92, 5731.04, 6,6.22>
<2464.68, 5890.54, 6,5.73>
<3945.14, 5803.76, 2,3.28>
<1552.22, 5996.22, 5,9.72>
<2592.13, 5878.90, 5,7.20>
<1224.90, 5756.82, 4,4.68>
<3429.74, 5951.24, 1,3.49>
<2078.53, 5925.64, 6,6.15>
<3610.17, 5845.18, 6,4.19>
<2171.40, 5680.54, 5,7.83>
<3737.19, 5679.34, 4,3.98>
<2133.59, 5815.30, 1,9.65>
<3924.29, 5799.10, 7,3.84>
<3631.32, 5919.72, 8,9.79>
<401.34, 5783.78, 3,3.07>
<3162.03, 5744.16, 4,5.66>
<2634.62, 5890.38, 2,7.13>
<3988.16, 5919.74, 2,5.66>
<1746.14, 6050.52, 3,4.68>
<4727.37, 5938.68, 7,3.91>
<1625.24, 5880.38, 8,3.91>
<4277.78, 5940.60, 7,8.11>
<5151.76, 5949.42, 3,6.15>
<4011.12, 5917.54, 5,8.46>
<2959.97, 6111.66, 6,9.09>
<630.63, 5694.38, 1,8.88>
<4594.08, 5922.66, 5,6.50>
<3018.98, 5973.16, 3,4.75>
<2965.09, 5833.62, 3,4.26>
<3340.14, 5852.16, 7,7.90>
<935.92, 5883.84, 6,8.18>
<2031.32, 5839.62, 2,4.26>];

Activities= {
<1, 1, 0.05, 262.00, 342.04>,
<1, 2, 0.02, 284.00, 339.68>,
<1, 3, 0.08, 344.00, 369.76>,
<1, 4, 0.12, 370.00, 391.00>,
<1, 5, 0.03, 282.00, 368.14>,
<1, 6, 0.12, 268.00, 348.52>,
<1, 7, 0.07, 320.00, 380.80>,
<1, 8, 0.10, 388.00, 394.72>,
<1, 9, 0.04, 388.00, 397.36>,
<1, 10, 0.03, 334.00, 384.16>,
<1, 11, 0.08, 324.00, 384.04>,
<1, 12, 0.04, 282.00, 355.16>,
<1, 13, 0.13, 270.00, 324.60>,
<1, 14, 0.05, 368.00, 387.84>,
<1, 15, 0.03, 342.00, 365.20>,
<1, 16, 0.01, 354.00, 377.46>,
<2, 1, 0.08, 280.00, 348.40>,
<2, 2, 0.01, 376.00, 388.24>,
<2, 3, 0.06, 382.00, 394.42>,
<2, 4, 0.07, 272.00, 352.64>,
<2, 5, 0.04, 314.00, 369.04>,
<2, 6, 0.06, 384.00, 392.80>,
<2, 7, 0.03, 280.00, 348.40>,
<2, 8, 0.07, 280.00, 354.40>,
<2, 9, 0.09, 382.00, 389.92>,
<2, 10, 0.06, 350.00, 378.50>,
<2, 11, 0.08, 396.00, 398.08>,
<2, 12, 0.05, 294.00, 349.12>,
<2, 13, 0.09, 392.00, 395.20>,
<2, 14, 0.07, 254.00, 359.12>,
<2, 15, 0.04, 322.00, 378.94>,
<2, 16, 0.09, 336.00, 376.96>,
<3, 1, 0.01, 342.00, 367.52>,
<3, 2, 0.00, 340.00, 382.00>,
<3, 3, 0.00, 314.00, 348.40>,
<3, 4, 0.03, 368.00, 382.72>,
<3, 5, 0.15, 292.00, 363.28>,
<3, 6, 0.05, 252.00, 360.04>,
<3, 7, 0.11, 270.00, 323.30>,
<3, 8, 0.13, 304.00, 355.84>,
<3, 9, 0.11, 260.00, 321.60>,
<3, 10, 0.05, 372.00, 389.92>,
<3, 11, 0.15, 288.00, 375.36>,
<3, 12, 0.03, 328.00, 371.20>,
<3, 13, 0.06, 252.00, 360.04>,
<3, 14, 0.07, 374.00, 388.30>,
<3, 15, 0.04, 352.00, 386.56>,
<3, 16, 0.02, 318.00, 366.38>,
<4, 1, 0.02, 268.00, 322.12>,
<4, 2, 0.12, 274.00, 324.40>,
<4, 3, 0.12, 384.00, 393.60>,
<4, 4, 0.13, 246.00, 353.80>,
<4, 5, 0.03, 390.00, 397.80>,
<4, 6, 0.12, 384.00, 392.00>,
<4, 7, 0.01, 262.00, 340.66>,
<4, 8, 0.03, 260.00, 362.20>,
<4, 9, 0.07, 292.00, 368.68>,
<4, 10, 0.04, 366.00, 388.78>,
<4, 11, 0.10, 334.00, 380.86>,
<4, 12, 0.03, 268.00, 347.20>,
<4, 13, 0.05, 276.00, 372.72>,
<4, 14, 0.00, 256.00, 342.40>,
<4, 15, 0.06, 314.00, 357.86>,
<4, 16, 0.08, 248.00, 348.32>,
<5, 1, 0.11, 358.00, 385.30>,
<5, 2, 0.11, 386.00, 393.56>,
<5, 3, 0.08, 370.00, 389.20>,
<5, 4, 0.01, 290.00, 353.80>,
<5, 5, 0.02, 264.00, 346.96>,
<5, 6, 0.10, 306.00, 378.38>,
<5, 7, 0.09, 314.00, 360.44>,
<5, 8, 0.08, 394.00, 396.40>,
<5, 9, 0.09, 276.00, 336.76>,
<5, 10, 0.02, 352.00, 373.12>,
<5, 11, 0.04, 360.00, 378.40>,
<5, 12, 0.11, 272.00, 360.32>,
<5, 13, 0.06, 324.00, 379.48>,
<5, 14, 0.05, 364.00, 379.84>,
<5, 15, 0.02, 356.00, 383.28>,
<5, 16, 0.01, 284.00, 354.76>,
<6, 1, 0.00, 248.00, 366.56>,
<6, 2, 0.08, 384.00, 395.84>,
<6, 3, 0.04, 384.00, 392.96>,
<6, 4, 0.06, 394.00, 398.26>,
<6, 5, 0.05, 374.00, 390.64>,
<6, 6, 0.10, 392.00, 398.16>,
<6, 7, 0.08, 328.00, 367.60>,
<6, 8, 0.02, 334.00, 367.00>,
<6, 9, 0.08, 338.00, 364.66>,
<6, 10, 0.07, 394.00, 396.76>,
<6, 11, 0.02, 350.00, 389.00>,
<6, 12, 0.09, 362.00, 380.24>,
<6, 13, 0.06, 386.00, 397.06>,
<6, 14, 0.10, 376.00, 390.16>,
<6, 15, 0.07, 308.00, 374.24>,
<6, 16, 0.07, 246.00, 309.14>,
<7, 1, 0.05, 330.00, 381.80>,
<7, 2, 0.09, 270.00, 333.70>,
<7, 3, 0.11, 330.00, 369.90>,
<7, 4, 0.09, 356.00, 376.68>,
<7, 5, 0.11, 378.00, 394.72>,
<7, 6, 0.03, 282.00, 370.50>,
<7, 7, 0.02, 378.00, 391.42>,
<7, 8, 0.04, 306.00, 357.70>,
<7, 9, 0.07, 258.00, 337.52>,
<7, 10, 0.06, 370.00, 389.20>,
<7, 11, 0.01, 386.00, 393.42>,
<7, 12, 0.05, 346.00, 375.16>,
<7, 13, 0.10, 340.00, 369.40>,
<7, 14, 0.04, 328.00, 383.44>,
<7, 15, 0.09, 356.00, 381.96>,
<7, 16, 0.03, 390.00, 396.50>,
<8, 1, 0.05, 266.00, 343.72>,
<8, 2, 0.09, 256.00, 358.24>,
<8, 3, 0.10, 324.00, 371.88>,
<8, 4, 0.09, 274.00, 363.46>,
<8, 5, 0.08, 332.00, 364.64>,
<8, 6, 0.03, 386.00, 392.16>,
<8, 7, 0.07, 320.00, 362.40>,
<8, 8, 0.07, 338.00, 377.06>,
<8, 9, 0.07, 324.00, 381.76>,
<8, 10, 0.07, 374.00, 391.94>,
<8, 11, 0.01, 344.00, 378.72>,
<8, 12, 0.04, 250.00, 341.50>,
<8, 13, 0.03, 378.00, 394.72>,
<8, 14, 0.04, 384.00, 396.16>,
<8, 15, 0.11, 258.00, 314.80>,
<8, 16, 0.04, 352.00, 379.36>,
<9, 1, 0.07, 344.00, 366.96>,
<9, 2, 0.10, 270.00, 331.10>,
<9, 3, 0.10, 360.00, 376.80>,
<9, 4, 0.07, 250.00, 361.00>,
<9, 5, 0.07, 272.00, 337.28>,
<9, 6, 0.05, 390.00, 396.00>,
<9, 7, 0.06, 302.00, 344.14>,
<9, 8, 0.01, 346.00, 369.76>,
<9, 9, 0.00, 394.00, 397.36>,
<9, 10, 0.09, 350.00, 384.00>,
<9, 11, 0.11, 284.00, 368.68>,
<9, 12, 0.01, 294.00, 357.60>,
<9, 13, 0.11, 382.00, 391.72>,
<9, 14, 0.03, 294.00, 344.88>,
<9, 15, 0.02, 262.00, 337.90>,
<9, 16, 0.10, 262.00, 361.36>,
<10, 1, 0.01, 248.00, 331.60>,
<10, 2, 0.06, 388.00, 396.04>,
<10, 3, 0.01, 254.00, 318.24>,
<10, 4, 0.09, 398.00, 398.96>,
<10, 5, 0.02, 294.00, 373.50>,
<10, 6, 0.09, 330.00, 380.40>,
<10, 7, 0.03, 338.00, 386.36>,
<10, 8, 0.02, 396.00, 398.24>,
<10, 9, 0.11, 286.00, 333.88>,
<10, 10, 0.09, 298.00, 350.02>,
<10, 11, 0.05, 334.00, 386.14>,
<10, 12, 0.01, 334.00, 386.14>,
<10, 13, 0.11, 372.00, 394.12>,
<10, 14, 0.11, 304.00, 367.36>,
<10, 15, 0.10, 288.00, 350.72>,
<10, 16, 0.11, 368.00, 391.04>,
<11, 1, 0.01, 324.00, 366.56>,
<11, 2, 0.06, 300.00, 376.00>,
<11, 3, 0.11, 374.00, 389.08>,
<11, 4, 0.08, 296.00, 354.24>,
<11, 5, 0.07, 350.00, 384.00>,
<11, 6, 0.06, 312.00, 351.60>,
<11, 7, 0.04, 322.00, 377.38>,
<11, 8, 0.06, 398.00, 399.34>,
<11, 9, 0.11, 248.00, 351.36>,
<11, 10, 0.05, 272.00, 336.00>,
<11, 11, 0.04, 376.00, 386.80>,
<11, 12, 0.04, 362.00, 381.00>,
<11, 13, 0.06, 396.00, 397.92>,
<11, 14, 0.09, 346.00, 383.80>,
<11, 15, 0.10, 346.00, 374.08>,
<11, 16, 0.01, 318.00, 354.08>,
<12, 1, 0.01, 300.00, 340.00>,
<12, 2, 0.06, 312.00, 348.08>,
<12, 3, 0.09, 338.00, 377.68>,
<12, 4, 0.04, 248.00, 324.00>,
<12, 5, 0.04, 378.00, 389.44>,
<12, 6, 0.04, 356.00, 382.40>,
<12, 7, 0.09, 384.00, 392.96>,
<12, 8, 0.11, 262.00, 358.60>,
<12, 9, 0.06, 382.00, 391.54>,
<12, 10, 0.13, 332.00, 382.32>,
<12, 11, 0.13, 340.00, 364.00>,
<12, 12, 0.04, 324.00, 363.52>,
<12, 13, 0.03, 368.00, 390.40>,
<12, 14, 0.11, 324.00, 363.52>,
<12, 15, 0.04, 280.00, 341.20>,
<12, 16, 0.00, 308.00, 358.60>,
<13, 1, 0.04, 344.00, 380.96>,
<13, 2, 0.01, 308.00, 371.48>,
<13, 3, 0.08, 312.00, 348.96>,
<13, 4, 0.08, 290.00, 354.90>,
<13, 5, 0.06, 268.00, 326.08>,
<13, 6, 0.01, 302.00, 346.10>,
<13, 7, 0.13, 296.00, 345.92>,
<13, 8, 0.12, 386.00, 393.00>,
<13, 9, 0.13, 314.00, 369.90>,
<13, 10, 0.09, 252.00, 355.60>,
<13, 11, 0.13, 370.00, 387.40>,
<13, 12, 0.02, 298.00, 355.12>,
<13, 13, 0.02, 280.00, 328.00>,
<13, 14, 0.03, 314.00, 359.58>,
<13, 15, 0.02, 266.00, 319.60>,
<13, 16, 0.03, 260.00, 345.40>,
<14, 1, 0.10, 348.00, 371.40>,
<14, 2, 0.01, 398.00, 399.32>,
<14, 3, 0.03, 360.00, 387.20>,
<14, 4, 0.04, 272.00, 325.76>,
<14, 5, 0.09, 346.00, 381.64>,
<14, 6, 0.04, 328.00, 380.56>,
<14, 7, 0.01, 304.00, 375.04>,
<14, 8, 0.04, 370.00, 391.30>,
<14, 9, 0.13, 296.00, 345.92>,
<14, 10, 0.07, 372.00, 388.80>,
<14, 11, 0.04, 240.00, 340.80>,
<14, 12, 0.08, 274.00, 353.38>,
<14, 13, 0.12, 322.00, 361.00>,
<14, 14, 0.02, 246.00, 364.58>,
<14, 15, 0.05, 302.00, 350.02>,
<14, 16, 0.12, 322.00, 358.66>,
<15, 1, 0.06, 242.00, 357.34>,
<15, 2, 0.01, 318.00, 352.44>,
<15, 3, 0.12, 358.00, 386.14>,
<15, 4, 0.07, 354.00, 377.00>,
<15, 5, 0.03, 334.00, 360.40>,
<15, 6, 0.03, 294.00, 340.64>,
<15, 7, 0.03, 362.00, 387.08>,
<15, 8, 0.04, 318.00, 377.86>,
<15, 9, 0.10, 356.00, 383.28>,
<15, 10, 0.08, 354.00, 389.88>,
<15, 11, 0.10, 370.00, 383.50>,
<15, 12, 0.09, 334.00, 377.56>,
<15, 13, 0.05, 292.00, 368.68>,
<15, 14, 0.06, 310.00, 351.40>,
<15, 15, 0.09, 368.00, 384.64>,
<15, 16, 0.04, 314.00, 351.84>,
<16, 1, 0.05, 372.00, 393.00>,
<16, 2, 0.00, 286.00, 354.40>,
<16, 3, 0.05, 348.00, 382.32>,
<16, 4, 0.10, 384.00, 393.28>,
<16, 5, 0.02, 288.00, 336.16>,
<16, 6, 0.07, 264.00, 367.36>,
<16, 7, 0.12, 344.00, 372.56>,
<16, 8, 0.01, 358.00, 385.72>,
<16, 9, 0.12, 266.00, 358.46>,
<16, 10, 0.05, 258.00, 357.40>,
<16, 11, 0.12, 352.00, 372.16>,
<16, 12, 0.05, 282.00, 338.64>,
<16, 13, 0.09, 342.00, 371.00>,
<16, 14, 0.02, 316.00, 353.80>,
<16, 15, 0.08, 274.00, 347.08>,
<16, 16, 0.04, 392.00, 397.36>,
<17, 1, 0.05, 332.00, 371.44>,
<17, 2, 0.03, 388.00, 393.28>,
<17, 3, 0.16, 250.00, 334.00>,
<17, 4, 0.06, 268.00, 369.64>,
<17, 5, 0.05, 344.00, 368.08>,
<17, 6, 0.14, 268.00, 347.20>,
<17, 7, 0.00, 272.00, 360.32>,
<17, 8, 0.05, 396.00, 398.64>,
<17, 9, 0.09, 328.00, 382.72>,
<17, 10, 0.11, 320.00, 352.80>,
<17, 11, 0.03, 276.00, 339.24>,
<17, 12, 0.02, 258.00, 367.34>,
<17, 13, 0.00, 242.00, 343.12>,
<17, 14, 0.05, 248.00, 365.04>,
<17, 15, 0.05, 372.00, 389.92>,
<17, 16, 0.10, 342.00, 373.90>,
<18, 1, 0.03, 316.00, 379.84>,
<18, 2, 0.04, 306.00, 357.70>,
<18, 3, 0.04, 318.00, 372.94>,
<18, 4, 0.08, 242.00, 317.84>,
<18, 5, 0.08, 336.00, 362.88>,
<18, 6, 0.14, 334.00, 368.98>,
<18, 7, 0.04, 380.00, 394.80>,
<18, 8, 0.13, 242.00, 344.70>,
<18, 9, 0.05, 282.00, 364.60>,
<18, 10, 0.07, 250.00, 347.50>,
<18, 11, 0.05, 328.00, 356.80>,
<18, 12, 0.01, 322.00, 383.62>,
<18, 13, 0.12, 306.00, 371.80>,
<18, 14, 0.05, 390.00, 397.80>,
<18, 15, 0.02, 384.00, 396.32>,
<18, 16, 0.07, 284.00, 375.64>,
<19, 1, 0.11, 272.00, 337.28>,
<19, 2, 0.12, 392.00, 396.40>,
<19, 3, 0.13, 274.00, 328.18>,
<19, 4, 0.12, 316.00, 374.80>,
<19, 5, 0.07, 396.00, 398.04>,
<19, 6, 0.07, 356.00, 388.12>,
<19, 7, 0.03, 240.00, 366.40>,
<19, 8, 0.10, 352.00, 371.68>,
<19, 9, 0.03, 248.00, 366.56>,
<19, 10, 0.02, 268.00, 340.60>,
<19, 11, 0.04, 356.00, 381.52>,
<19, 12, 0.00, 258.00, 330.42>,
<19, 13, 0.01, 268.00, 367.00>,
<19, 14, 0.02, 298.00, 355.12>,
<19, 15, 0.05, 334.00, 384.16>,
<19, 16, 0.07, 300.00, 364.00>,
<20, 1, 0.11, 374.00, 391.68>,
<20, 2, 0.02, 280.00, 331.60>,
<20, 3, 0.06, 342.00, 380.86>,
<20, 4, 0.02, 388.00, 395.32>,
<20, 5, 0.06, 250.00, 320.50>,
<20, 6, 0.04, 296.00, 377.12>,
<20, 7, 0.12, 348.00, 376.60>,
<20, 8, 0.02, 322.00, 383.62>,
<20, 9, 0.11, 294.00, 354.42>,
<20, 10, 0.06, 344.00, 379.28>,
<20, 11, 0.04, 340.00, 375.40>,
<20, 12, 0.06, 322.00, 372.70>,
<20, 13, 0.10, 288.00, 333.92>,
<20, 14, 0.01, 398.00, 399.52>,
<20, 15, 0.06, 262.00, 336.52>,
<20, 16, 0.10, 346.00, 387.04>,
<21, 1, 0.08, 368.00, 389.12>,
<21, 2, 0.09, 244.00, 342.28>,
<21, 3, 0.04, 280.00, 337.60>,
<21, 4, 0.01, 270.00, 335.00>,
<21, 5, 0.08, 270.00, 353.20>,
<21, 6, 0.05, 298.00, 356.14>,
<21, 7, 0.13, 298.00, 370.42>,
<21, 8, 0.15, 272.00, 328.32>,
<21, 9, 0.02, 364.00, 387.04>,
<21, 10, 0.07, 334.00, 378.22>,
<21, 11, 0.04, 312.00, 348.96>,
<21, 12, 0.07, 248.00, 313.36>,
<21, 13, 0.00, 294.00, 365.02>,
<21, 14, 0.01, 248.00, 311.84>,
<21, 15, 0.07, 388.00, 392.80>,
<21, 16, 0.10, 248.00, 339.20>,
<22, 1, 0.01, 246.00, 326.08>,
<22, 2, 0.03, 302.00, 346.10>,
<22, 3, 0.06, 336.00, 373.76>,
<22, 4, 0.03, 300.00, 356.00>,
<22, 5, 0.15, 368.00, 384.64>,
<22, 6, 0.12, 396.00, 397.72>,
<22, 7, 0.03, 330.00, 373.40>,
<22, 8, 0.03, 322.00, 370.36>,
<22, 9, 0.12, 292.00, 376.24>,
<22, 10, 0.01, 312.00, 366.56>,
<22, 11, 0.09, 386.00, 391.74>,
<22, 12, 0.11, 258.00, 351.72>,
<22, 13, 0.05, 382.00, 394.78>,
<22, 14, 0.11, 372.00, 389.36>,
<22, 15, 0.01, 314.00, 380.22>,
<22, 16, 0.05, 278.00, 349.98>,
<23, 1, 0.09, 256.00, 322.24>,
<23, 2, 0.10, 340.00, 365.20>,
<23, 3, 0.10, 372.00, 389.36>,
<23, 4, 0.10, 398.00, 399.56>,
<23, 5, 0.02, 294.00, 363.96>,
<23, 6, 0.07, 260.00, 348.20>,
<23, 7, 0.00, 266.00, 338.36>,
<23, 8, 0.07, 344.00, 378.72>,
<23, 9, 0.07, 296.00, 371.92>,
<23, 10, 0.07, 310.00, 379.30>,
<23, 11, 0.03, 262.00, 342.04>,
<23, 12, 0.06, 352.00, 374.08>,
<23, 13, 0.10, 368.00, 391.04>,
<23, 14, 0.08, 270.00, 358.40>,
<23, 15, 0.03, 324.00, 384.04>,
<23, 16, 0.01, 266.00, 357.12>,
<24, 1, 0.06, 286.00, 341.86>,
<24, 2, 0.08, 366.00, 384.02>,
<24, 3, 0.11, 368.00, 384.64>,
<24, 4, 0.00, 318.00, 366.38>,
<24, 5, 0.03, 268.00, 360.40>,
<24, 6, 0.08, 246.00, 330.70>,
<24, 7, 0.07, 348.00, 371.40>,
<24, 8, 0.07, 396.00, 397.96>,
<24, 9, 0.10, 276.00, 373.96>,
<24, 10, 0.04, 344.00, 382.08>,
<24, 11, 0.06, 242.00, 332.06>,
<24, 12, 0.09, 314.00, 369.90>,
<24, 13, 0.03, 352.00, 388.96>,
<24, 14, 0.06, 344.00, 382.08>,
<24, 15, 0.06, 386.00, 393.28>,
<24, 16, 0.04, 362.00, 380.62>,
<25, 1, 0.06, 360.00, 386.00>,
<25, 2, 0.07, 336.00, 376.96>,
<25, 3, 0.03, 310.00, 376.60>,
<25, 4, 0.09, 278.00, 357.30>,
<25, 5, 0.04, 282.00, 375.22>,
<25, 6, 0.09, 354.00, 372.40>,
<25, 7, 0.02, 328.00, 363.28>,
<25, 8, 0.08, 316.00, 352.12>,
<25, 9, 0.01, 360.00, 376.80>,
<25, 10, 0.05, 294.00, 341.70>,
<25, 11, 0.14, 384.00, 394.88>,
<25, 12, 0.08, 332.00, 374.84>,
<25, 13, 0.06, 348.00, 386.48>,
<25, 14, 0.10, 372.00, 387.40>,
<25, 15, 0.05, 290.00, 351.60>,
<25, 16, 0.02, 278.00, 328.02>,
<26, 1, 0.03, 360.00, 385.20>,
<26, 2, 0.07, 250.00, 337.00>,
<26, 3, 0.09, 284.00, 344.32>,
<26, 4, 0.01, 304.00, 362.56>,
<26, 5, 0.05, 264.00, 337.44>,
<26, 6, 0.08, 248.00, 365.04>,
<26, 7, 0.04, 344.00, 373.12>,
<26, 8, 0.01, 248.00, 352.88>,
<26, 9, 0.07, 264.00, 357.84>,
<26, 10, 0.07, 336.00, 366.72>,
<26, 11, 0.06, 346.00, 388.66>,
<26, 12, 0.08, 360.00, 378.00>,
<26, 13, 0.07, 342.00, 382.60>,
<26, 14, 0.09, 376.00, 386.56>,
<26, 15, 0.06, 256.00, 349.60>,
<26, 16, 0.10, 254.00, 337.22>,
<27, 1, 0.01, 282.00, 346.90>,
<27, 2, 0.10, 394.00, 398.56>,
<27, 3, 0.02, 386.00, 396.36>,
<27, 4, 0.11, 278.00, 343.88>,
<27, 5, 0.03, 364.00, 380.20>,
<27, 6, 0.06, 380.00, 391.60>,
<27, 7, 0.03, 364.00, 392.08>,
<27, 8, 0.02, 340.00, 376.60>,
<27, 9, 0.12, 376.00, 385.60>,
<27, 10, 0.09, 376.00, 386.08>,
<27, 11, 0.11, 296.00, 371.92>,
<27, 12, 0.03, 334.00, 377.56>,
<27, 13, 0.10, 366.00, 389.80>,
<27, 14, 0.06, 336.00, 378.24>,
<27, 15, 0.08, 290.00, 360.40>,
<27, 16, 0.04, 394.00, 398.50>,
<28, 1, 0.12, 244.00, 343.84>,
<28, 2, 0.09, 396.00, 399.12>,
<28, 3, 0.05, 378.00, 390.32>,
<28, 4, 0.02, 394.00, 397.36>,
<28, 5, 0.12, 362.00, 389.74>,
<28, 6, 0.04, 352.00, 388.48>,
<28, 7, 0.11, 366.00, 380.96>,
<28, 8, 0.05, 378.00, 392.52>,
<28, 9, 0.05, 324.00, 355.16>,
<28, 10, 0.05, 382.00, 393.70>,
<28, 11, 0.10, 244.00, 342.28>,
<28, 12, 0.00, 398.00, 398.96>,
<28, 13, 0.11, 324.00, 374.92>,
<28, 14, 0.01, 270.00, 337.60>,
<28, 15, 0.04, 336.00, 368.64>,
<28, 16, 0.05, 298.00, 354.10>,
<29, 1, 0.11, 368.00, 383.36>,
<29, 2, 0.05, 362.00, 380.62>,
<29, 3, 0.09, 240.00, 352.00>,
<29, 4, 0.05, 246.00, 318.38>,
<29, 5, 0.09, 274.00, 337.00>,
<29, 6, 0.08, 320.00, 361.60>,
<29, 7, 0.11, 260.00, 346.80>,
<29, 8, 0.07, 332.00, 369.40>,
<29, 9, 0.10, 350.00, 376.00>,
<29, 10, 0.06, 346.00, 382.18>,
<29, 11, 0.03, 258.00, 355.98>,
<29, 12, 0.00, 296.00, 355.28>,
<29, 13, 0.03, 296.00, 353.20>,
<29, 14, 0.02, 294.00, 359.72>,
<29, 15, 0.03, 312.00, 348.96>,
<29, 16, 0.10, 338.00, 369.00>,
<30, 1, 0.07, 328.00, 376.24>,
<30, 2, 0.09, 304.00, 367.36>,
<30, 3, 0.07, 382.00, 396.22>,
<30, 4, 0.04, 330.00, 366.40>,
<30, 5, 0.00, 320.00, 369.60>,
<30, 6, 0.05, 246.00, 326.08>,
<30, 7, 0.08, 252.00, 311.20>,
<30, 8, 0.10, 354.00, 379.76>,
<30, 9, 0.07, 246.00, 364.58>,
<30, 10, 0.09, 272.00, 339.84>,
<30, 11, 0.03, 264.00, 353.76>,
<30, 12, 0.06, 380.00, 395.20>,
<30, 13, 0.00, 276.00, 338.00>,
<30, 14, 0.12, 268.00, 344.56>,
<30, 15, 0.00, 278.00, 357.30>,
<30, 16, 0.12, 242.00, 305.20>,
<31, 1, 0.01, 290.00, 339.50>,
<31, 2, 0.04, 328.00, 371.92>,
<31, 3, 0.05, 300.00, 376.00>,
<31, 4, 0.11, 358.00, 380.26>,
<31, 5, 0.10, 294.00, 370.32>,
<31, 6, 0.06, 250.00, 364.00>,
<31, 7, 0.07, 368.00, 387.20>,
<31, 8, 0.04, 370.00, 393.40>,
<31, 9, 0.08, 390.00, 397.90>,
<31, 10, 0.01, 360.00, 387.20>,
<31, 11, 0.02, 272.00, 365.44>,
<31, 12, 0.06, 398.00, 399.54>,
<31, 13, 0.11, 378.00, 387.68>,
<31, 14, 0.04, 306.00, 380.26>,
<31, 15, 0.09, 280.00, 350.80>,
<31, 16, 0.11, 338.00, 373.34>,
<32, 1, 0.09, 314.00, 372.48>,
<32, 2, 0.03, 300.00, 358.00>,
<32, 3, 0.11, 268.00, 326.08>,
<32, 4, 0.02, 364.00, 388.12>,
<32, 5, 0.09, 348.00, 384.92>,
<32, 6, 0.08, 384.00, 396.48>,
<32, 7, 0.11, 296.00, 368.80>,
<32, 8, 0.01, 294.00, 351.24>,
<32, 9, 0.10, 324.00, 357.44>,
<32, 10, 0.10, 268.00, 341.92>,
<32, 11, 0.02, 280.00, 366.40>,
<32, 12, 0.05, 262.00, 344.80>,
<32, 13, 0.03, 246.00, 307.60>,
<32, 14, 0.04, 318.00, 363.10>,
<32, 15, 0.11, 394.00, 397.18>,
<32, 16, 0.02, 358.00, 388.66>,
<33, 1, 0.01, 334.00, 362.38>,
<33, 2, 0.07, 304.00, 365.44>,
<33, 3, 0.02, 262.00, 355.84>,
<33, 4, 0.05, 252.00, 333.40>,
<33, 5, 0.12, 246.00, 346.10>,
<33, 6, 0.10, 248.00, 363.52>,
<33, 7, 0.08, 264.00, 323.84>,
<33, 8, 0.06, 276.00, 346.68>,
<33, 9, 0.09, 280.00, 342.40>,
<33, 10, 0.04, 376.00, 392.08>,
<33, 11, 0.07, 350.00, 381.50>,
<33, 12, 0.04, 316.00, 365.56>,
<33, 13, 0.09, 312.00, 351.60>,
<33, 14, 0.09, 308.00, 371.48>,
<33, 15, 0.04, 370.00, 384.10>,
<33, 16, 0.01, 288.00, 345.12>,
<34, 1, 0.00, 244.00, 323.56>,
<34, 2, 0.14, 326.00, 373.36>,
<34, 3, 0.04, 316.00, 373.12>,
<34, 4, 0.07, 298.00, 376.54>,
<34, 5, 0.10, 378.00, 392.74>,
<34, 6, 0.00, 292.00, 343.84>,
<34, 7, 0.13, 326.00, 380.02>,
<34, 8, 0.07, 300.00, 363.00>,
<34, 9, 0.06, 292.00, 358.96>,
<34, 10, 0.07, 316.00, 365.56>,
<34, 11, 0.08, 398.00, 399.18>,
<34, 12, 0.03, 272.00, 346.24>,
<34, 13, 0.02, 394.00, 398.68>,
<34, 14, 0.11, 396.00, 398.52>,
<34, 15, 0.02, 272.00, 338.56>,
<34, 16, 0.05, 294.00, 358.66>,
<35, 1, 0.09, 360.00, 390.40>,
<35, 2, 0.02, 254.00, 344.52>,
<35, 3, 0.05, 396.00, 398.40>,
<35, 4, 0.00, 374.00, 384.66>,
<35, 5, 0.03, 256.00, 343.84>,
<35, 6, 0.12, 292.00, 343.84>,
<35, 7, 0.08, 288.00, 339.52>,
<35, 8, 0.08, 314.00, 375.92>,
<35, 9, 0.04, 376.00, 391.84>,
<35, 10, 0.05, 240.00, 305.60>,
<35, 11, 0.09, 346.00, 376.24>,
<35, 12, 0.05, 338.00, 385.74>,
<35, 13, 0.01, 276.00, 347.92>,
<35, 14, 0.11, 292.00, 344.92>,
<35, 15, 0.09, 270.00, 349.30>,
<35, 16, 0.10, 330.00, 381.10>,
<36, 1, 0.02, 264.00, 322.48>,
<36, 2, 0.01, 322.00, 364.12>,
<36, 3, 0.06, 398.00, 398.86>,
<36, 4, 0.12, 362.00, 380.24>,
<36, 5, 0.06, 248.00, 366.56>,
<36, 6, 0.08, 322.00, 382.84>,
<36, 7, 0.02, 390.00, 395.70>,
<36, 8, 0.09, 324.00, 376.44>,
<36, 9, 0.01, 304.00, 351.04>,
<36, 10, 0.05, 350.00, 383.00>,
<36, 11, 0.13, 362.00, 380.24>,
<36, 12, 0.09, 336.00, 384.00>,
<36, 13, 0.06, 386.00, 392.58>,
<36, 14, 0.07, 316.00, 356.32>,
<36, 15, 0.06, 276.00, 372.72>,
<36, 16, 0.06, 358.00, 389.08>,
<37, 1, 0.07, 262.00, 358.60>,
<37, 2, 0.02, 320.00, 371.20>,
<37, 3, 0.08, 320.00, 381.60>,
<37, 4, 0.11, 346.00, 378.94>,
<37, 5, 0.09, 274.00, 372.28>,
<37, 6, 0.06, 274.00, 369.76>,
<37, 7, 0.04, 300.00, 348.00>,
<37, 8, 0.10, 294.00, 369.26>,
<37, 9, 0.00, 346.00, 383.80>,
<37, 10, 0.07, 270.00, 349.30>,
<37, 11, 0.07, 356.00, 386.80>,
<37, 12, 0.02, 246.00, 329.16>,
<37, 13, 0.05, 264.00, 329.28>,
<37, 14, 0.04, 328.00, 374.80>,
<37, 15, 0.07, 370.00, 384.40>,
<37, 16, 0.10, 382.00, 391.72>,
<38, 1, 0.01, 258.00, 331.84>,
<38, 2, 0.06, 278.00, 371.94>,
<38, 3, 0.01, 378.00, 388.78>,
<38, 4, 0.13, 364.00, 386.68>,
<38, 5, 0.06, 248.00, 354.40>,
<38, 6, 0.05, 336.00, 366.08>,
<38, 7, 0.03, 246.00, 319.92>,
<38, 8, 0.02, 248.00, 330.08>,
<38, 9, 0.12, 372.00, 389.36>,
<38, 10, 0.11, 280.00, 370.00>,
<38, 11, 0.12, 250.00, 353.50>,
<38, 12, 0.05, 264.00, 326.56>,
<38, 13, 0.00, 378.00, 387.68>,
<38, 14, 0.01, 326.00, 358.56>,
<38, 15, 0.09, 344.00, 367.52>,
<38, 16, 0.12, 272.00, 353.92>,
<39, 1, 0.05, 384.00, 392.16>,
<39, 2, 0.01, 344.00, 369.20>,
<39, 3, 0.04, 272.00, 370.56>,
<39, 4, 0.00, 316.00, 352.96>,
<39, 5, 0.09, 306.00, 372.74>,
<39, 6, 0.08, 396.00, 398.92>,
<39, 7, 0.06, 324.00, 381.76>,
<39, 8, 0.10, 302.00, 343.16>,
<39, 9, 0.06, 266.00, 358.46>,
<39, 10, 0.10, 372.00, 386.28>,
<39, 11, 0.05, 320.00, 365.60>,
<39, 12, 0.02, 362.00, 388.22>,
<39, 13, 0.09, 280.00, 370.00>,
<39, 14, 0.04, 296.00, 351.12>,
<39, 15, 0.11, 258.00, 360.24>,
<39, 16, 0.10, 374.00, 389.86>,
<40, 1, 0.11, 340.00, 386.20>,
<40, 2, 0.07, 302.00, 372.56>,
<40, 3, 0.03, 284.00, 335.04>,
<40, 4, 0.04, 262.00, 353.08>,
<40, 5, 0.04, 296.00, 351.12>,
<40, 6, 0.01, 312.00, 363.04>,
<40, 7, 0.07, 326.00, 370.40>,
<40, 8, 0.08, 346.00, 373.54>,
<40, 9, 0.07, 256.00, 359.68>,
<40, 10, 0.02, 368.00, 381.76>,
<40, 11, 0.04, 398.00, 399.24>,
<40, 12, 0.12, 256.00, 355.36>,
<40, 13, 0.03, 388.00, 394.60>,
<40, 14, 0.07, 370.00, 393.70>,
<40, 15, 0.11, 262.00, 342.04>,
<40, 16, 0.07, 378.00, 394.28>,
<41, 1, 0.05, 282.00, 331.56>,
<41, 2, 0.07, 304.00, 355.84>,
<41, 3, 0.04, 352.00, 376.96>,
<41, 4, 0.09, 322.00, 356.32>,
<41, 5, 0.04, 372.00, 387.40>,
<41, 6, 0.06, 392.00, 395.28>,
<41, 7, 0.09, 274.00, 359.68>,
<41, 8, 0.11, 260.00, 317.40>,
<41, 9, 0.04, 390.00, 397.70>,
<41, 10, 0.07, 248.00, 345.28>,
<41, 11, 0.11, 394.00, 397.48>,
<41, 12, 0.02, 348.00, 377.12>,
<41, 13, 0.11, 286.00, 352.12>,
<41, 14, 0.00, 358.00, 386.56>,
<41, 15, 0.01, 256.00, 348.16>,
<41, 16, 0.09, 276.00, 360.32>,
<42, 1, 0.11, 290.00, 365.90>,
<42, 2, 0.08, 244.00, 323.56>,
<42, 3, 0.03, 258.00, 340.36>,
<42, 4, 0.03, 340.00, 381.40>,
<42, 5, 0.12, 240.00, 347.20>,
<42, 6, 0.01, 270.00, 337.60>,
<42, 7, 0.06, 364.00, 391.36>,
<42, 8, 0.03, 386.00, 394.26>,
<42, 9, 0.07, 320.00, 380.80>,
<42, 10, 0.05, 256.00, 315.04>,
<42, 11, 0.06, 342.00, 377.38>,
<42, 12, 0.10, 324.00, 359.72>,
<42, 13, 0.13, 292.00, 335.20>,
<42, 14, 0.02, 264.00, 337.44>,
<42, 15, 0.01, 260.00, 317.40>,
<42, 16, 0.08, 344.00, 375.92>,
<43, 1, 0.11, 318.00, 361.46>,
<43, 2, 0.13, 350.00, 373.50>,
<43, 3, 0.04, 266.00, 358.46>,
<43, 4, 0.04, 272.00, 323.20>,
<43, 5, 0.03, 308.00, 351.24>,
<43, 6, 0.06, 308.00, 370.56>,
<43, 7, 0.05, 270.00, 331.10>,
<43, 8, 0.10, 342.00, 366.94>,
<43, 9, 0.11, 258.00, 334.68>,
<43, 10, 0.05, 266.00, 324.96>,
<43, 11, 0.02, 292.00, 339.52>,
<43, 12, 0.03, 330.00, 374.10>,
<43, 13, 0.02, 284.00, 367.52>,
<43, 14, 0.08, 264.00, 345.60>,
<43, 15, 0.07, 358.00, 389.50>,
<43, 16, 0.06, 300.00, 367.00>,
<44, 1, 0.03, 244.00, 329.80>,
<44, 2, 0.10, 332.00, 376.20>,
<44, 3, 0.01, 250.00, 350.50>,
<44, 4, 0.02, 386.00, 392.58>,
<44, 5, 0.06, 368.00, 384.00>,
<44, 6, 0.01, 254.00, 335.76>,
<44, 7, 0.11, 276.00, 364.04>,
<44, 8, 0.06, 258.00, 326.16>,
<44, 9, 0.11, 368.00, 392.32>,
<44, 10, 0.12, 346.00, 382.18>,
<44, 11, 0.05, 332.00, 359.20>,
<44, 12, 0.15, 334.00, 361.72>,
<44, 13, 0.07, 264.00, 368.72>,
<44, 14, 0.03, 252.00, 354.12>,
<44, 15, 0.03, 280.00, 346.00>,
<44, 16, 0.04, 368.00, 392.00>,
<45, 1, 0.09, 364.00, 391.72>,
<45, 2, 0.08, 272.00, 339.84>,
<45, 3, 0.02, 250.00, 329.50>,
<45, 4, 0.05, 394.00, 397.72>,
<45, 5, 0.04, 388.00, 396.76>,
<45, 6, 0.10, 258.00, 341.78>,
<45, 7, 0.04, 320.00, 364.80>,
<45, 8, 0.00, 256.00, 336.64>,
<45, 9, 0.10, 346.00, 378.40>,
<45, 10, 0.06, 290.00, 337.30>,
<45, 11, 0.05, 272.00, 371.84>,
<45, 12, 0.01, 344.00, 379.28>,
<45, 13, 0.08, 272.00, 339.84>,
<45, 14, 0.09, 304.00, 364.48>,
<45, 15, 0.09, 302.00, 364.72>,
<45, 16, 0.08, 304.00, 364.48>,
<46, 1, 0.08, 358.00, 380.26>,
<46, 2, 0.01, 390.00, 396.10>,
<46, 3, 0.11, 372.00, 386.28>,
<46, 4, 0.02, 340.00, 372.40>,
<46, 5, 0.01, 286.00, 366.94>,
<46, 6, 0.10, 272.00, 362.88>,
<46, 7, 0.07, 364.00, 383.80>,
<46, 8, 0.09, 266.00, 359.80>,
<46, 9, 0.04, 246.00, 346.10>,
<46, 10, 0.10, 252.00, 346.72>,
<46, 11, 0.09, 390.00, 396.00>,
<46, 12, 0.04, 294.00, 354.42>,
<46, 13, 0.02, 256.00, 356.80>,
<46, 14, 0.10, 266.00, 361.14>,
<46, 15, 0.00, 316.00, 354.64>,
<46, 16, 0.10, 392.00, 395.44>,
<47, 1, 0.03, 300.00, 366.00>,
<47, 2, 0.10, 244.00, 356.32>,
<47, 3, 0.12, 380.00, 388.60>,
<47, 4, 0.04, 348.00, 388.56>,
<47, 5, 0.05, 270.00, 332.40>,
<47, 6, 0.01, 312.00, 379.76>,
<47, 7, 0.07, 256.00, 333.76>,
<47, 8, 0.04, 250.00, 323.50>,
<47, 9, 0.04, 294.00, 342.76>,
<47, 10, 0.03, 398.00, 399.12>,
<47, 11, 0.11, 358.00, 384.88>,
<47, 12, 0.02, 268.00, 357.76>,
<47, 13, 0.12, 298.00, 345.94>,
<47, 14, 0.06, 248.00, 346.80>,
<47, 15, 0.06, 302.00, 365.70>,
<47, 16, 0.11, 292.00, 371.92>,
<48, 1, 0.08, 288.00, 373.12>,
<48, 2, 0.04, 300.00, 361.00>,
<48, 3, 0.10, 268.00, 369.64>,
<48, 4, 0.02, 394.00, 396.46>,
<48, 5, 0.07, 242.00, 306.78>,
<48, 6, 0.08, 328.00, 383.44>,
<48, 7, 0.07, 364.00, 389.56>,
<48, 8, 0.10, 352.00, 381.76>,
<48, 9, 0.02, 260.00, 328.60>,
<48, 10, 0.05, 300.00, 375.00>,
<48, 11, 0.08, 384.00, 392.16>,
<48, 12, 0.08, 250.00, 346.00>,
<48, 13, 0.04, 274.00, 338.26>,
<48, 14, 0.08, 240.00, 336.00>,
<48, 15, 0.07, 262.00, 332.38>,
<48, 16, 0.03, 290.00, 334.00>,
<49, 1, 0.01, 294.00, 336.40>,
<49, 2, 0.08, 314.00, 361.30>,
<49, 3, 0.15, 394.00, 398.50>,
<49, 4, 0.02, 386.00, 395.80>,
<49, 5, 0.01, 246.00, 336.86>,
<49, 6, 0.10, 242.00, 358.92>,
<49, 7, 0.05, 348.00, 386.48>,
<49, 8, 0.00, 378.00, 392.30>,
<49, 9, 0.05, 354.00, 388.96>,
<49, 10, 0.14, 246.00, 333.78>,
<49, 11, 0.04, 328.00, 368.32>,
<49, 12, 0.08, 396.00, 398.72>,
<49, 13, 0.07, 254.00, 347.44>,
<49, 14, 0.11, 260.00, 328.60>,
<49, 15, 0.07, 248.00, 368.08>,
<49, 16, 0.01, 352.00, 389.92>,
<50, 1, 0.03, 398.00, 399.24>,
<50, 2, 0.03, 350.00, 384.00>,
<50, 3, 0.06, 276.00, 335.52>,
<50, 4, 0.09, 258.00, 330.42>,
<50, 5, 0.08, 262.00, 368.26>,
<50, 6, 0.02, 252.00, 333.40>,
<50, 7, 0.04, 304.00, 375.04>,
<50, 8, 0.05, 358.00, 375.64>,
<50, 9, 0.10, 368.00, 385.92>,
<50, 10, 0.10, 392.00, 396.96>,
<50, 11, 0.11, 300.00, 361.00>,
<50, 12, 0.11, 368.00, 382.08>,
<50, 13, 0.07, 308.00, 355.84>,
<50, 14, 0.02, 374.00, 390.90>,
<50, 15, 0.03, 278.00, 374.38>,
<50, 16, 0.07, 322.00, 371.14>,
<51, 1, 0.02, 338.00, 380.16>,
<51, 2, 0.06, 390.00, 397.20>,
<51, 3, 0.09, 366.00, 384.70>,
<51, 4, 0.09, 326.00, 357.82>,
<51, 5, 0.08, 310.00, 359.50>,
<51, 6, 0.07, 294.00, 342.76>,
<51, 7, 0.03, 328.00, 358.96>,
<51, 8, 0.08, 360.00, 389.20>,
<51, 9, 0.03, 282.00, 369.32>,
<51, 10, 0.08, 356.00, 383.72>,
<51, 11, 0.04, 396.00, 398.80>,
<51, 12, 0.05, 370.00, 393.70>,
<51, 13, 0.07, 332.00, 375.52>,
<51, 14, 0.09, 380.00, 394.60>,
<51, 15, 0.04, 392.00, 395.52>,
<51, 16, 0.09, 314.00, 369.04>,
<52, 1, 0.07, 294.00, 367.14>,
<52, 2, 0.09, 350.00, 388.00>,
<52, 3, 0.07, 364.00, 380.92>,
<52, 4, 0.06, 278.00, 354.86>,
<52, 5, 0.08, 256.00, 338.08>,
<52, 6, 0.06, 328.00, 379.12>,
<52, 7, 0.09, 398.00, 398.88>,
<52, 8, 0.01, 350.00, 377.00>,
<52, 9, 0.00, 310.00, 347.80>,
<52, 10, 0.01, 316.00, 356.32>,
<52, 11, 0.09, 350.00, 372.00>,
<52, 12, 0.04, 374.00, 386.74>,
<52, 13, 0.10, 292.00, 368.68>,
<52, 14, 0.08, 364.00, 392.08>,
<52, 15, 0.07, 326.00, 365.22>,
<52, 16, 0.06, 278.00, 365.84>,
<53, 1, 0.08, 272.00, 353.92>,
<53, 2, 0.03, 296.00, 376.08>,
<53, 3, 0.04, 286.00, 370.36>,
<53, 4, 0.10, 348.00, 388.04>,
<53, 5, 0.09, 262.00, 339.28>,
<53, 6, 0.06, 282.00, 374.04>,
<53, 7, 0.07, 256.00, 366.88>,
<53, 8, 0.00, 262.00, 365.50>,
<53, 9, 0.07, 342.00, 383.76>,
<53, 10, 0.10, 362.00, 388.60>,
<53, 11, 0.00, 368.00, 384.96>,
<53, 12, 0.07, 260.00, 317.40>,
<53, 13, 0.06, 258.00, 370.18>,
<53, 14, 0.13, 314.00, 352.70>,
<53, 15, 0.08, 244.00, 357.88>,
<53, 16, 0.02, 360.00, 390.80>,
<54, 1, 0.06, 364.00, 379.48>,
<54, 2, 0.01, 382.00, 392.98>,
<54, 3, 0.12, 342.00, 387.82>,
<54, 4, 0.02, 266.00, 365.16>,
<54, 5, 0.14, 354.00, 373.78>,
<54, 6, 0.01, 322.00, 383.62>,
<54, 7, 0.02, 344.00, 374.24>,
<54, 8, 0.01, 394.00, 396.76>,
<54, 9, 0.14, 242.00, 316.26>,
<54, 10, 0.05, 296.00, 369.84>,
<54, 11, 0.10, 380.00, 391.20>,
<54, 12, 0.04, 244.00, 312.64>,
<54, 13, 0.12, 256.00, 359.68>,
<54, 14, 0.06, 382.00, 391.72>,
<54, 15, 0.05, 360.00, 381.60>,
<54, 16, 0.05, 266.00, 363.82>,
<55, 1, 0.03, 318.00, 373.76>,
<55, 2, 0.13, 280.00, 371.20>,
<55, 3, 0.08, 302.00, 374.52>,
<55, 4, 0.03, 252.00, 357.08>,
<55, 5, 0.10, 368.00, 381.12>,
<55, 6, 0.00, 296.00, 351.12>,
<55, 7, 0.00, 382.00, 395.14>,
<55, 8, 0.02, 240.00, 312.00>,
<55, 9, 0.08, 386.00, 391.60>,
<55, 10, 0.02, 376.00, 394.96>,
<55, 11, 0.04, 290.00, 341.70>,
<55, 12, 0.07, 300.00, 379.00>,
<55, 13, 0.14, 384.00, 392.16>,
<55, 14, 0.13, 368.00, 383.68>,
<55, 15, 0.05, 388.00, 393.28>,
<55, 16, 0.09, 322.00, 357.10>,
<56, 1, 0.07, 240.00, 345.60>,
<56, 2, 0.10, 316.00, 357.16>,
<56, 3, 0.00, 242.00, 325.74>,
<56, 4, 0.05, 374.00, 387.26>,
<56, 5, 0.04, 288.00, 375.36>,
<56, 6, 0.06, 396.00, 397.72>,
<56, 7, 0.11, 284.00, 344.32>,
<56, 8, 0.09, 334.00, 368.32>,
<56, 9, 0.11, 382.00, 390.82>,
<56, 10, 0.09, 356.00, 390.32>,
<56, 11, 0.10, 342.00, 376.22>,
<56, 12, 0.03, 366.00, 391.84>,
<56, 13, 0.06, 294.00, 377.74>,
<56, 14, 0.00, 390.00, 397.40>,
<56, 15, 0.04, 252.00, 323.04>,
<56, 16, 0.04, 346.00, 368.68>,
<57, 1, 0.01, 290.00, 357.10>,
<57, 2, 0.03, 386.00, 393.28>,
<57, 3, 0.11, 310.00, 364.00>,
<57, 4, 0.05, 294.00, 369.26>,
<57, 5, 0.11, 336.00, 369.28>,
<57, 6, 0.10, 362.00, 390.12>,
<57, 7, 0.10, 382.00, 393.34>,
<57, 8, 0.06, 358.00, 389.50>,
<57, 9, 0.06, 336.00, 382.72>,
<57, 10, 0.05, 394.00, 397.06>,
<57, 11, 0.10, 382.00, 390.10>,
<57, 12, 0.09, 376.00, 394.00>,
<57, 13, 0.03, 398.00, 399.58>,
<57, 14, 0.04, 370.00, 382.00>,
<57, 15, 0.05, 352.00, 387.52>,
<57, 16, 0.02, 282.00, 352.80>,
<58, 1, 0.06, 302.00, 351.00>,
<58, 2, 0.10, 326.00, 355.60>,
<58, 3, 0.04, 244.00, 345.40>,
<58, 4, 0.09, 282.00, 365.78>,
<58, 5, 0.07, 326.00, 371.14>,
<58, 6, 0.08, 300.00, 359.00>,
<58, 7, 0.02, 350.00, 380.00>,
<58, 8, 0.02, 258.00, 319.06>,
<58, 9, 0.09, 348.00, 371.92>,
<58, 10, 0.07, 396.00, 398.44>,
<58, 11, 0.11, 252.00, 320.08>,
<58, 12, 0.09, 298.00, 373.48>,
<58, 13, 0.05, 270.00, 366.20>,
<58, 14, 0.04, 266.00, 367.84>,
<58, 15, 0.04, 256.00, 322.24>,
<58, 16, 0.01, 260.00, 327.20>,
<59, 1, 0.01, 274.00, 369.76>,
<59, 2, 0.04, 376.00, 387.04>,
<59, 3, 0.01, 292.00, 354.64>,
<59, 4, 0.08, 340.00, 380.20>,
<59, 5, 0.05, 370.00, 382.00>,
<59, 6, 0.05, 344.00, 368.08>,
<59, 7, 0.14, 280.00, 338.80>,
<59, 8, 0.03, 354.00, 382.98>,
<59, 9, 0.09, 358.00, 381.94>,
<59, 10, 0.13, 286.00, 338.44>,
<59, 11, 0.12, 272.00, 330.88>,
<59, 12, 0.03, 370.00, 390.40>,
<59, 13, 0.06, 360.00, 380.80>,
<59, 14, 0.09, 350.00, 387.50>,
<59, 15, 0.01, 328.00, 380.56>,
<59, 16, 0.06, 336.00, 368.64>,
<60, 1, 0.01, 360.00, 377.60>,
<60, 2, 0.06, 394.00, 396.46>,
<60, 3, 0.01, 278.00, 362.18>,
<60, 4, 0.03, 384.00, 390.40>,
<60, 5, 0.09, 306.00, 359.58>,
<60, 6, 0.09, 314.00, 371.62>,
<60, 7, 0.12, 306.00, 369.92>,
<60, 8, 0.06, 336.00, 381.44>,
<60, 9, 0.03, 294.00, 374.56>,
<60, 10, 0.04, 394.00, 398.20>,
<60, 11, 0.05, 360.00, 390.40>,
<60, 12, 0.02, 314.00, 381.94>,
<60, 13, 0.08, 256.00, 345.28>,
<60, 14, 0.10, 322.00, 357.10>,
<60, 15, 0.13, 290.00, 376.90>,
<60, 16, 0.10, 286.00, 339.58>,
<61, 1, 0.08, 294.00, 370.32>,
<61, 2, 0.05, 304.00, 352.96>,
<61, 3, 0.06, 270.00, 359.70>,
<61, 4, 0.05, 264.00, 357.84>,
<61, 5, 0.12, 372.00, 391.60>,
<61, 6, 0.06, 368.00, 384.32>,
<61, 7, 0.09, 314.00, 373.34>,
<61, 8, 0.02, 302.00, 361.78>,
<61, 9, 0.09, 250.00, 316.00>,
<61, 10, 0.07, 272.00, 373.12>,
<61, 11, 0.02, 298.00, 339.82>,
<61, 12, 0.05, 380.00, 393.40>,
<61, 13, 0.09, 274.00, 364.72>,
<61, 14, 0.06, 310.00, 378.40>,
<61, 15, 0.01, 290.00, 359.30>,
<61, 16, 0.09, 314.00, 357.00>,
<62, 1, 0.02, 304.00, 363.52>,
<62, 2, 0.04, 332.00, 363.96>,
<62, 3, 0.13, 320.00, 354.40>,
<62, 4, 0.05, 342.00, 365.78>,
<62, 5, 0.08, 326.00, 380.76>,
<62, 6, 0.03, 278.00, 336.56>,
<62, 7, 0.12, 258.00, 343.20>,
<62, 8, 0.12, 350.00, 386.00>,
<62, 9, 0.07, 270.00, 366.20>,
<62, 10, 0.12, 324.00, 379.48>,
<62, 11, 0.05, 298.00, 347.98>,
<62, 12, 0.06, 262.00, 371.02>,
<62, 13, 0.05, 370.00, 382.30>,
<62, 14, 0.01, 242.00, 338.38>,
<62, 15, 0.00, 308.00, 379.76>,
<62, 16, 0.04, 366.00, 392.86>,
<63, 1, 0.07, 262.00, 354.46>,
<63, 2, 0.04, 284.00, 371.00>,
<63, 3, 0.04, 358.00, 388.66>,
<63, 4, 0.06, 382.00, 394.96>,
<63, 5, 0.10, 376.00, 393.28>,
<63, 6, 0.02, 308.00, 348.48>,
<63, 7, 0.08, 346.00, 379.48>,
<63, 8, 0.02, 264.00, 319.76>,
<63, 9, 0.13, 378.00, 386.80>,
<63, 10, 0.02, 294.00, 355.48>,
<63, 11, 0.10, 342.00, 374.48>,
<63, 12, 0.04, 336.00, 374.40>,
<63, 13, 0.10, 328.00, 357.52>,
<63, 14, 0.01, 252.00, 354.12>,
<63, 15, 0.07, 248.00, 343.76>,
<63, 16, 0.09, 368.00, 387.20>,
<64, 1, 0.05, 240.00, 304.00>,
<64, 2, 0.12, 318.00, 371.30>,
<64, 3, 0.03, 278.00, 359.74>,
<64, 4, 0.12, 256.00, 319.36>,
<64, 5, 0.09, 308.00, 353.08>,
<64, 6, 0.01, 266.00, 351.76>,
<64, 7, 0.08, 288.00, 368.64>,
<64, 8, 0.02, 396.00, 398.20>,
<64, 9, 0.07, 350.00, 383.00>,
<64, 10, 0.12, 342.00, 376.80>,
<64, 11, 0.08, 318.00, 372.12>,
<64, 12, 0.08, 300.00, 376.00>,
<64, 13, 0.01, 314.00, 370.76>,
<64, 14, 0.01, 324.00, 373.40>,
<64, 15, 0.09, 354.00, 373.78>,
<64, 16, 0.01, 356.00, 387.68>};

Synergies= [
<1 , 0 ,0, 3, 2, 3, 3>,
<2 , 0 ,0, 2, 3, 3, 3>];

SItems= [{<1 ,58, 13>,<1, 58, 6>,<1, 58, 9>},
{<2 ,20, 1>,<2, 58, 3>,<2, 58, 2>}];